7
C1-type NH3-O3 scan point d=3.2 A (N-terminal average); JOB-2026-0906-029/030 rigid placement of JOB-026 monomers; initial guess convention, not author coordinates
N        3.655058419329       0.000000000000      -0.000000000000
H        4.023814061317       0.941471218854      -0.000000000000
H        4.023813390383      -0.470735609427       0.815340342237
H        4.023813390383      -0.470735609427      -0.815340342237
O        0.000000000000       0.000000000000       0.000000000000
O        0.636350791195       0.000000000000       1.061789599999
O        0.636348438805       0.000000000000      -1.061789599999
