7
C1-type NH3-O3 scan point d=2.6 A (N-terminal average); JOB-2026-0906-029/030 rigid placement of JOB-026 monomers; initial guess convention, not author coordinates
N        3.009660139423       0.000000000000      -0.000000000000
H        3.378415781410       0.941471218854      -0.000000000000
H        3.378415110477      -0.470735609427       0.815340342237
H        3.378415110477      -0.470735609427      -0.815340342237
O        0.000000000000       0.000000000000       0.000000000000
O        0.636350791195       0.000000000000       1.061789599999
O        0.636348438805       0.000000000000      -1.061789599999
