7
continuation start = JOB-033 step 30 last-evaluated geometry (verified)
N        3.470881514410       0.102260265546       0.000000230557
H        4.042818517461       0.936141517950       0.000012241180
H        3.721266369993      -0.440393138423       0.815496826424
H        3.721264056502      -0.440368192295      -0.815513682205
O        0.312482357856       0.363057909054      -0.000004003484
O        0.439458389664      -0.260334737461       1.060484869971
O        0.439455654313      -0.260363624271      -1.060476482443
