7
JOB-039 continuation start = JOB-038 last accepted point a960f4a403fbd3ec (verified)
N        3.443227785983       0.149343890912      -0.000008100010
H        4.125220566284       0.895486380170       0.000057066206
H        3.614467953695      -0.423116215311       0.815530898031
H        3.614515173818      -0.423017523126      -0.815606511422
O        0.297248133948       0.329784739703      -0.000016398884
O        0.526471544139      -0.264173587860       1.060414961274
O        0.526475702467      -0.264307684435      -1.060371915037
